%NProcShared=4
%Mem=4GB
#P B3LYP/6-31G(d) Opt Freq

Generated by RDKit

0 1
C 2.728468 0.684021 1.509025
C 3.983325 0.376240 1.845875
N 4.646642 -0.755671 1.261057
B 6.111380 -1.041868 1.609822
O 6.857716 -1.981630 0.788322
C 7.914943 -1.193196 0.295604
C 9.214716 -1.952103 0.649955
C 7.809428 -1.148513 -1.245461
C 7.803287 0.238930 1.000047
C 7.208361 1.352844 0.090573
C 9.142304 0.781052 1.549447
O 6.938573 0.055358 2.090619
C 3.943763 -1.610366 0.345147
C 2.691495 -1.332347 -0.025231
C 1.982700 -0.129409 0.503548
C 0.728461 0.210015 0.082671
C -0.099856 1.226021 0.797715
C -1.327913 1.531145 0.373548
N -1.887686 0.891863 -0.785016
B -3.314702 1.230211 -1.230341
O -4.005571 0.317148 -2.125136
C -5.009095 -0.203379 -1.288753
C -4.414236 -1.489623 -0.630973
C -6.170688 -0.637785 -2.247137
C -7.316099 -1.455895 -1.638488
C -5.330572 0.992214 -0.253819
C -6.557337 1.884283 -0.652597
C -6.291783 2.846542 -1.820141
C -5.483302 0.557155 1.243530
C -6.783579 -0.177147 1.620881
C -6.849772 -0.425883 3.125904
O -4.214695 1.857862 -0.280674
C -1.115748 -0.067857 -1.524120
C 0.113372 -0.406594 -1.129757
H 2.316408 1.578271 1.947067
H 4.505074 1.007065 2.556498
H 9.200941 -2.970120 0.202693
H 9.305822 -2.081555 1.749578
H 10.110658 -1.425198 0.259377
H 7.915849 -2.170479 -1.671173
H 8.609561 -0.508334 -1.675077
H 6.817214 -0.772089 -1.569545
H 6.219842 1.059415 -0.320620
H 7.048527 2.282627 0.678172
H 7.894284 1.591138 -0.749742
H 8.995578 1.780077 2.015437
H 9.550681 0.121682 2.343433
H 9.887299 0.886178 0.732207
H 4.420785 -2.501809 -0.046203
H 2.201845 -2.047832 -0.667180
H 0.228719 1.699032 1.708975
H -1.909752 2.255755 0.932021
H -4.121205 -2.217870 -1.418018
H -3.499150 -1.266025 -0.043254
H -5.124067 -1.996354 0.045773
H -6.602113 0.230182 -2.779659
H -5.729651 -1.266876 -3.052776
H -8.037097 -1.711638 -2.443610
H -6.951834 -2.411695 -1.212024
H -7.873808 -0.887914 -0.873504
H -6.844025 2.522683 0.212413
H -7.451928 1.279425 -0.881834
H -5.610235 3.662965 -1.498207
H -5.835942 2.330530 -2.688539
H -7.249261 3.307032 -2.144068
H -5.434711 1.479403 1.865503
H -4.609190 -0.046472 1.563937
H -6.841612 -1.158723 1.118522
H -7.671118 0.423712 1.333059
H -5.983483 -1.036506 3.455961
H -6.849029 0.538294 3.676687
H -7.783201 -0.972867 3.371813
H -1.520454 -0.519292 -2.422621
H 0.657478 -1.089457 -1.763951

