%NProcShared=4
%Mem=4GB
%Chk=output.chk
#P B3LYP/6-31G(d) SP Pop=Full

Orbital-only single point calculation

0 1
C -4.127127 2.189681 0.441436
C -2.604351 2.451891 0.352526
C -2.358249 3.355595 -0.875342
C -2.184504 3.202734 1.635043
C -1.769276 1.160341 0.216106
C -2.350132 -0.129090 0.179198
C -1.568806 -1.300293 0.053116
C -2.262303 -2.680410 0.028321
C -3.047715 -2.884956 1.342164
C -3.235372 -2.747981 -1.168794
C -1.269321 -3.860264 -0.110964
C -0.169017 -1.153330 -0.042416
C 0.423852 0.111457 -0.012409
B 1.996291 0.259444 -0.124530
C 2.596774 0.335134 -1.658416
C 2.602888 -1.075936 -2.280155
C 4.021130 0.918687 -1.721908
C 1.688365 1.244329 -2.518938
C 2.881787 -0.024623 1.241110
C 3.876303 1.125733 1.512350
C 3.641567 -1.359821 1.124654
C 1.946489 -0.119102 2.472268
C -0.367616 1.252974 0.123064
N -1.627422 0.657885 0.055886
C -0.227415 0.325845 0.013281
C 0.216835 -1.010912 -0.030758
C 1.584858 -1.298884 -0.071467
C 2.520847 -0.262032 -0.068139
C 2.090848 1.065959 -0.024523
C 0.724409 1.359293 0.015675
C -2.693238 -0.338909 0.057325
H -4.686906 3.145427 0.536998
H -4.371310 1.572824 1.332984
H -4.495647 1.678277 -0.473944
H -2.624731 2.816265 -1.810793
H -1.296473 3.672974 -0.945718
H -2.975643 4.278389 -0.815862
H -2.314953 2.549434 2.524781
H -2.803693 4.114454 1.779043
H -1.123573 3.526468 1.592867
H -3.418645 -0.239835 0.250925
H -3.512010 -3.894573 1.371254
H -2.368444 -2.787110 2.216472
H -3.865224 -2.142036 1.451837
H -2.690275 -2.564881 -2.120358
H -3.717650 -3.747978 -1.228145
H -4.046764 -1.995111 -1.082606
H -0.562325 -3.886146 0.746317
H -0.695335 -3.786297 -1.060060
H -1.811100 -4.831466 -0.124625
H 0.481239 -2.010528 -0.134526
H 1.576674 -1.499847 -2.322353
H 3.243969 -1.769573 -1.698546
H 2.996141 -1.042593 -3.319307
H 4.761426 0.245083 -1.248933
H 4.057838 1.922205 -1.246007
H 4.344443 1.040442 -2.778609
H 2.090395 1.342641 -3.551070
H 1.619159 2.262799 -2.077239
H 0.662102 0.826285 -2.608323
H 4.751968 1.093296 0.838805
H 4.289055 1.055383 2.542115
H 3.375538 2.113129 1.412103
H 4.168003 -1.592919 2.075737
H 2.938855 -2.192991 0.904520
H 4.410005 -1.327226 0.328312
H 1.360280 0.817621 2.597508
H 1.242533 -0.974084 2.379562
H 2.530741 -0.280082 3.404282
H 0.118677 2.219685 0.153118
H -1.906206 1.664870 0.088668
H -0.484628 -1.834059 -0.032914
H 1.919489 -2.327717 -0.104079
H 3.579064 -0.487277 -0.098274
H 2.816282 1.869208 -0.022910
H 0.406628 2.393940 0.047121
H -2.594874 -0.996602 0.946134
H -3.681457 0.165972 0.099610
H -2.644022 -0.946580 -0.870636

