%NProcShared=4
%Mem=4GB
%Chk=safe_flp.chk
#P B3LYP/6-31G(d) SP Pop=Full IOp(3/33=1)

FLP CO2-active system

0 1
B 0.003403 -0.031379 -0.115466
C -0.469887 1.439497 -0.473715
C -1.590298 1.661348 -1.299142
F -2.273878 0.622938 -1.845045
C -1.995947 2.966804 -1.595820
C -1.293274 4.056952 -1.077831
C -0.179394 3.846387 -0.262095
F 0.501517 4.905611 0.240552
C 0.232278 2.544727 0.039373
C 1.547835 -0.341593 0.069801
C 2.510934 0.226560 -0.787824
F 2.142494 1.024246 -1.822974
C 3.868781 -0.053387 -0.601632
C 4.277844 -0.897639 0.432966
C 3.329907 -1.468178 1.285255
F 3.728446 -2.287236 2.289520
C 1.970896 -1.193162 1.105985
C -1.072304 -1.150122 0.211767
C -0.854385 -2.495000 -0.148360
F 0.264480 -2.866597 -0.821891
C -1.812324 -3.467464 0.157337
C -2.989691 -3.111959 0.819085
C -3.215714 -1.780859 1.176267
F -4.358899 -1.437206 1.819133
C -2.263109 -0.803002 0.874577
C 3.684203 -1.257286 0.418357
C 4.852455 -0.359468 0.163063
C 4.662212 1.016915 -0.015990
C 5.768881 1.836065 -0.246375
C 7.048345 1.279828 -0.295102
C 7.204164 -0.100386 -0.112307
C 8.564727 -0.719523 -0.152330
N 6.110136 -0.879175 0.113352
H -2.854189 3.134456 -2.233785
H -1.611539 5.064796 -1.311433
H 1.091700 2.403390 0.683730
H 4.606158 0.380738 -1.264576
H 5.329904 -1.111054 0.571693
H 1.252910 -1.636478 1.785494
H -1.644505 -4.499039 -0.124402
H -3.727544 -3.868769 1.052385
H -2.452605 0.221672 1.171074
H 2.952761 -1.168197 -0.412314
H 3.192852 -0.969964 1.371613
H 4.013605 -2.315591 0.490673
H 3.669499 1.448154 0.023338
H 5.635214 2.901013 -0.385954
H 7.907416 1.915124 -0.472263
H 9.053532 -0.491403 -1.122887
H 9.184728 -0.313796 0.674493
H 8.495269 -1.822311 -0.039367

