%NProcShared=4
%Mem=4GB
#P B3LYP/6-31G(d) Opt Freq

Generated by RDKit

0 1
O 2.936732 -0.751883 1.141370
B 1.562055 -0.326741 1.387748
O 0.492048 -1.297319 1.196199
C -0.169138 -0.758979 0.082425
C -1.652092 -1.187810 0.155769
C 0.423193 -1.413892 -1.199402
C 0.062912 0.816472 0.169194
C -1.116405 1.563531 0.841454
C 0.326017 1.489831 -1.199132
O 1.181650 1.024322 1.002831
P -0.114973 0.200419 -0.921550
C 1.421837 -0.720092 -0.395790
C -1.390724 -0.856369 -0.062365
C -0.049309 1.608969 0.299255
H 3.363755 -0.757193 2.035029
H -2.104836 -0.932990 1.134471
H -1.746449 -2.294060 0.040522
H -2.244808 -0.710890 -0.660682
H 1.497494 -1.159828 -1.323237
H -0.129199 -1.088104 -2.111005
H 0.351480 -2.519566 -1.140824
H -1.361754 1.108570 1.828264
H -0.843894 2.626826 1.040890
H -2.016638 1.559495 0.186800
H 1.280107 1.119177 -1.636092
H 0.424489 2.597725 -1.062963
H -0.516717 1.293305 -1.909629
H 1.470708 -0.804779 0.707383
H 1.414840 -1.736513 -0.826455
H 2.314998 -0.177762 -0.752472
H -1.468009 -1.843758 -0.565261
H -2.378341 -0.355235 -0.113426
H -1.115423 -1.020212 0.996881
H 0.140325 1.239204 1.329889
H 0.763681 2.306331 0.016425
H -1.009609 2.159798 0.287486

