%NProcShared=4
%Mem=4GB
%Chk=output.chk
#P B3LYP/6-31G(d) SP Pop=Full

Generated from SMILES

0 1
O -2.036921 2.523443 0.109583
B -0.989877 1.771288 -0.577146
O -1.335069 0.479176 -1.153512
C -0.582518 -0.387745 -0.346727
C -0.239366 -1.641032 -1.182070
C -1.481811 -0.863469 0.830715
C 0.691230 0.457274 0.108140
C 1.929904 0.221481 -0.788547
C 1.118173 0.207176 1.571068
O 0.360575 1.818701 -0.036271
P 0.163010 0.060876 0.997701
C 0.840468 -1.401620 0.061876
C -1.600410 -0.010441 0.398440
C 0.787234 1.422665 -0.110816
H -2.237572 3.279513 -0.497705
H 0.428919 -2.319634 -0.610903
H -1.163798 -2.201317 -1.440979
H 0.245220 -1.368517 -2.141973
H -2.413860 -1.324549 0.439213
H -0.960040 -1.621548 1.452397
H -1.783647 -0.013967 1.478284
H 2.312378 -0.815937 -0.689234
H 2.751325 0.912845 -0.501549
H 1.687018 0.429889 -1.852245
H 0.329119 0.533256 2.279879
H 1.340214 -0.869011 1.733344
H 2.030402 0.792685 1.816238
H 0.564614 -1.337973 -1.011659
H 1.946179 -1.417938 0.154263
H 0.425106 -2.337235 0.490843
H -2.099640 -0.903918 0.828665
H -1.632151 -0.073117 -0.709907
H -2.137591 0.902170 0.729949
H 1.889610 1.501141 -0.012038
H 0.325276 2.383891 0.194023
H 0.528295 1.211501 -1.169546

