%NProcShared=4
%Mem=4GB
%Chk=triphenylphosphine_oxide.chk
#P B3LYP/6-31G(d) Opt=(Cartesian,CalcFC,MaxStep=10) Freq Pop=Full IOp(3/33=1)

Orbital-only single point calculation

0 1
O -2.041894 2.517798 0.091772
B -0.994591 1.764217 -0.594046
O -1.337053 0.465229 -1.157036
C -0.581338 -0.391899 -0.342887
C -0.235160 -1.651800 -1.167953
C -1.478771 -0.858940 0.839690
C 0.690428 0.460551 0.102341
C 1.929946 0.216226 -0.790519
C 1.117574 0.226754 1.567512
O 0.357618 1.819873 -0.057998
P 0.146465 0.053057 1.000884
C 0.845749 -1.399269 0.064023
C -1.606548 -0.016847 0.371847
C 0.785164 1.425035 -0.086715
H -2.249278 3.269112 -0.519253
H 0.435361 -2.324307 -0.590434
H -1.158020 -2.216792 -1.423355
H 0.247414 -1.386035 -2.131060
H -2.408800 -1.326143 0.450937
H -0.956024 -1.610531 1.469228
H -1.785136 -0.004486 1.478885
H 2.312078 -0.820128 -0.681568
H 2.750288 0.910368 -0.508817
H 1.688069 0.411626 -1.856410
H 0.328146 0.557154 2.273142
H 1.342262 -0.847280 1.741627
H 2.026880 0.819432 1.806204
H 0.585622 -1.327897 -1.012427
H 1.950260 -1.412802 0.174565
H 0.427659 -2.339905 0.478569
H -2.111499 -0.912630 0.790243
H -1.619496 -0.070978 -0.736048
H -2.150321 0.892347 0.699716
H 1.885563 1.505767 0.033091
H 0.315224 2.383488 0.215279
H 0.546158 1.220634 -1.151233

